0	210.0	-22.5	210.0	-13.5	2	1	bound 1
0	210.0	-13.5	210.0	-4.5	2	1	bound 2
0	210.0	-4.5	210.0	4.5	2	1	bound 3
0	210.0	4.5	210.0	13.5	2	1	bound 4
0	210.0	13.5	210.0	22.5	2	1	bound 5
0	210.0	22.5	200.0	22.5	2	1	bound 6
0	200.0	22.5	190.0	22.5	2	1	bound 7
0	190.0	22.5	180.0	22.5	2	1	bound 8
0	180.0	22.5	170.0	22.5	2	1	bound 9
0	170.0	22.5	160.0	22.5	2	1	bound 10
0	160.0	22.5	150.0	22.5	2	1	bound 11
1	150.0	22.5	150.0	13.5	2	1	50.0	0.0	r	1	bound 12
1	150.0	13.5	150.0	4.5	2	1	50.0	0.0	r	1	bound 13
1	150.0	4.5	150.0	-4.5	2	1	50.0	0.0	r	1	bound 14
1	150.0	-4.5	150.0	-13.5	2	1	50.0	0.0	r	1	bound 15
1	150.0	-13.5	150.0	-22.5	2	1	50.0	0.0	r	1	bound 16
0	150.0	-22.5	160.0	-22.5	2	1	bound 17
0	160.0	-22.5	170.0	-22.5	2	1	bound 18
0	170.0	-22.5	180.0	-22.5	2	1	bound 19
0	180.0	-22.5	190.0	-22.5	2	1	bound 20
0	190.0	-22.5	200.0	-22.5	2	1	bound 21
0	200.0	-22.5	210.0	-22.5	2	1	bound 22
